16,9	0,0	19,5	10,0	0,0	0,0	0,0	0,0	0,0	17,0
18,3	10,1	0,0	19,6	12,3	0,0	0,0	7,1	0,0	0,0
0,0	0,0	9,4	0,0	12,5	13,9	0,0	0,0	16,6	0,0
20,0	0,0	9,9	0,0	0,0	0,0	14,1	0,0	0,0	0,0
0,0	6,6	0,0	7,7	7,1	0,0	0,0	14,6	0,0	0,0
0,0	6,1	16,3	0,0	15,1	7,6	0,0	0,0	16,0	0,0
0,0	11,6	0,0	13,2	0,0	0,0	13,6	0,0	0,0	18,1
18,9	0,0	17,0	0,0	0,0	0,0	0,0	0,0	0,0	12,8
0,0	15,3	0,0	7,3	15,7	0,0	0,0	18,4	0,0	0,0
0,0	0,0	7,6	0,0	0,0	12,3	11,3	0,0	0,0	17,7
									
3,8	4,9	3,0	3,3	5,0	4,8	4,9	3,8	2,7	2,8
